(declare-fun x129 () Real)
(declare-fun x128 () Real)
(declare-fun x127 () Real)
(declare-fun x126 () Real)
(declare-fun x125 () Real)
(declare-fun x124 () Real)
(declare-fun x123 () Real)
(declare-fun x122 () Real)
(declare-fun x121 () Real)
(declare-fun x120 () Real)
(declare-fun x119 () Real)
(declare-fun x118 () Real)
(declare-fun x117 () Real)
(declare-fun x116 () Real)
(declare-fun x115 () Real)
(declare-fun x114 () Real)
(declare-fun x113 () Real)
(declare-fun x112 () Real)
(declare-fun x111 () Real)
(declare-fun x110 () Real)
(declare-fun x109 () Real)
(declare-fun x108 () Real)
(declare-fun x107 () Real)
(declare-fun x106 () Real)
(declare-fun x105 () Real)
(declare-fun x104 () Real)
(declare-fun x103 () Real)
(declare-fun x102 () Real)
(declare-fun x101 () Real)
(declare-fun x100 () Real)
(declare-fun x99 () Real)
(declare-fun x98 () Real)
(declare-fun x97 () Real)
(declare-fun x96 () Real)
(declare-fun x95 () Real)
(declare-fun x94 () Real)
(declare-fun x93 () Real)
(declare-fun x92 () Real)
(declare-fun x91 () Real)
(declare-fun x90 () Real)
(declare-fun x89 () Real)
(declare-fun x88 () Real)
(declare-fun x87 () Real)
(declare-fun x86 () Real)
(declare-fun x85 () Real)
(declare-fun x84 () Real)
(declare-fun x83 () Real)
(declare-fun x82 () Real)
(declare-fun x81 () Real)
(declare-fun x80 () Real)
(declare-fun x79 () Real)
(declare-fun x78 () Real)
(declare-fun x77 () Real)
(declare-fun x76 () Real)
(declare-fun x75 () Real)
(declare-fun x74 () Real)
(declare-fun x73 () Real)
(declare-fun x72 () Real)
(declare-fun x71 () Real)
(declare-fun x70 () Real)
(declare-fun x69 () Real)
(declare-fun x68 () Real)
(declare-fun x67 () Real)
(declare-fun x66 () Real)
(declare-fun x65 () Real)
(declare-fun x64 () Real)
(declare-fun x63 () Real)
(declare-fun x62 () Real)
(declare-fun x61 () Real)
(declare-fun x60 () Real)
(declare-fun x59 () Real)
(declare-fun x58 () Real)
(declare-fun x57 () Real)
(declare-fun x56 () Real)
(declare-fun x55 () Real)
(declare-fun x54 () Real)
(declare-fun x53 () Real)
(declare-fun x52 () Real)
(declare-fun x51 () Real)
(declare-fun x50 () Real)
(declare-fun x49 () Real)
(declare-fun x48 () Real)
(declare-fun x47 () Real)
(declare-fun x46 () Real)
(declare-fun x45 () Real)
(declare-fun x44 () Real)
(declare-fun x43 () Real)
(declare-fun x42 () Real)
(declare-fun x41 () Real)
(declare-fun x40 () Real)
(declare-fun x39 () Real)
(declare-fun x38 () Real)
(declare-fun x37 () Real)
(declare-fun x36 () Real)
(declare-fun x35 () Real)
(declare-fun x34 () Real)
(declare-fun x33 () Real)
(declare-fun x32 () Real)
(declare-fun x31 () Real)
(declare-fun x30 () Real)
(declare-fun x29 () Real)
(declare-fun x28 () Real)
(declare-fun x27 () Real)
(declare-fun x26 () Real)
(declare-fun x25 () Real)
(declare-fun x24 () Real)
(declare-fun x23 () Real)
(declare-fun x22 () Real)
(declare-fun x21 () Real)
(declare-fun x20 () Real)
(declare-fun x19 () Real)
(declare-fun x18 () Real)
(declare-fun x17 () Real)
(declare-fun x16 () Real)
(declare-fun x15 () Real)
(declare-fun x14 () Real)
(declare-fun x13 () Real)
(declare-fun x12 () Real)
(declare-fun x11 () Real)
(declare-fun x10 () Real)
(declare-fun x9 () Real)
(declare-fun x8 () Real)
(declare-fun x7 () Real)
(declare-fun x6 () Real)
(declare-fun x5 () Real)
(declare-fun x4 () Real)
(declare-fun x3 () Real)
(declare-fun x2 () Real)
(declare-fun x1 () Real)
(declare-fun x0 () Real)
(assert (let ((a!1 (+ (* x0 (/ 15384615.0 2.0))
              (* x1 (/ 15384615.0 2.0))
              (* x2 (/ 15384615.0 2.0))
              (* x3 (/ 15384615.0 2.0))
              (* x4 (/ 15384615.0 2.0))
              (* x5 (/ 15384615.0 2.0))
              (* x6 (/ 15384615.0 2.0))
              (* x7 (/ 15384615.0 2.0))
              (* x8 (/ 15384615.0 2.0))
              (* x9 (/ 15384615.0 2.0))
              (* x10 (/ 15384615.0 2.0))
              (* x11 (/ 15384615.0 2.0))
              (* x12 (/ 15384615.0 2.0))
              (* x13 (/ 15384615.0 2.0))
              (* x14 (/ 15384615.0 2.0))
              (* x15 (/ 15384615.0 2.0))
              (* x16 (/ 15384615.0 2.0))
              (* x17 (/ 15384615.0 2.0))
              (* x18 (/ 15384615.0 2.0))
              (* x19 (/ 15384615.0 2.0))
              (* x20 (/ 15384615.0 2.0))
              (* x21 (/ 15384615.0 2.0))
              (* x22 (/ 15384615.0 2.0))
              (* x23 (/ 15384615.0 2.0))
              (* x24 (/ 15384615.0 2.0))
              (* x25 (/ 15384615.0 2.0))
              (* x26 (/ 15384615.0 2.0))
              (* x27 (/ 15384615.0 2.0))
              (* x28 (/ 15384615.0 2.0))
              (* x29 (/ 15384615.0 2.0))
              (* x30 (/ 15384615.0 2.0))
              (* x31 (/ 15384615.0 2.0))
              (* x32 (/ 15384615.0 2.0))
              (* x33 (/ 15384615.0 2.0))
              (* x34 (/ 15384615.0 2.0))
              (* x35 (/ 15384615.0 2.0))
              (* x36 (/ 15384615.0 2.0))
              (* x37 (/ 15384615.0 2.0))
              (* x38 (/ 15384615.0 2.0))
              (* x39 (/ 15384615.0 2.0))
              (* x40 (/ 15384615.0 2.0))
              (* x41 (/ 15384615.0 2.0))
              (* x42 (/ 15384615.0 2.0))
              (* x43 (/ 15384615.0 2.0))
              (* x44 (/ 15384615.0 2.0))
              (* x45 (/ 15384615.0 2.0))
              (* x46 (/ 15384615.0 2.0))
              (* x47 (/ 15384615.0 2.0))
              (* x48 (/ 15384615.0 2.0))
              (* x49 (/ 15384615.0 2.0))
              (* x50 (/ 15384615.0 2.0))
              (* x51 (/ 15384615.0 2.0))
              (* x52 (/ 15384615.0 2.0))
              (* x53 (/ 15384615.0 2.0))
              (* x54 (/ 15384615.0 2.0))
              (* x55 (/ 15384615.0 2.0))
              (* x56 (/ 15384615.0 2.0))
              (* x57 (/ 15384615.0 2.0))
              (* x58 (/ 15384615.0 2.0))
              (* x59 (/ 15384615.0 2.0))
              (* x60 (/ 15384615.0 2.0))
              (* x61 (/ 15384615.0 2.0))
              (* x62 (/ 15384615.0 2.0))
              (* x63 (/ 15384615.0 2.0))
              (* x64 (/ 15384615.0 2.0))
              (* x65 (/ 15384615.0 2.0))
              (* x66 (/ 15384615.0 2.0))
              (* x67 (/ 15384615.0 2.0))
              (* x68 (/ 15384615.0 2.0))
              (* x69 (/ 15384615.0 2.0))
              (* x70 (/ 15384615.0 2.0))
              (* x71 (/ 15384615.0 2.0))
              (* x72 (/ 15384615.0 2.0))
              (* x73 (/ 15384615.0 2.0))
              (* x74 (/ 15384615.0 2.0))
              (* x75 (/ 15384615.0 2.0))
              (* x76 (/ 15384615.0 2.0))
              (* x77 (/ 15384615.0 2.0))
              (* x78 (/ 15384615.0 2.0))
              (* x79 (/ 15384615.0 2.0))
              (* x80 (/ 15384615.0 2.0))
              (* x81 (/ 15384615.0 2.0))
              (* x82 (/ 15384615.0 2.0))
              (* x83 (/ 15384615.0 2.0))
              (* x84 (/ 15384615.0 2.0))
              (* x85 (/ 15384615.0 2.0))
              (* x86 (/ 15384615.0 2.0))
              (* x87 (/ 15384615.0 2.0))
              (* x88 (/ 15384615.0 2.0))
              (* x89 (/ 15384615.0 2.0))
              (* x90 (/ 15384615.0 2.0))
              (* x91 (/ 15384615.0 2.0))
              (* x92 (/ 15384615.0 2.0))
              (* x93 (/ 15384615.0 2.0))
              (* x94 (/ 15384615.0 2.0))
              (* x95 (/ 15384615.0 2.0))
              (* x96 (/ 15384615.0 2.0))
              (* x97 (/ 15384615.0 2.0))
              (* x98 (/ 15384615.0 2.0))
              (* x99 (/ 15384615.0 2.0))
              (* x100 (/ 15384615.0 2.0))
              (* x101 (/ 15384615.0 2.0))
              (* x102 (/ 15384615.0 2.0))
              (* x103 (/ 15384615.0 2.0))
              (* x104 (/ 15384615.0 2.0))
              (* x105 (/ 15384615.0 2.0))
              (* x106 (/ 15384615.0 2.0))
              (* x107 (/ 15384615.0 2.0))
              (* x108 (/ 15384615.0 2.0))
              (* x109 (/ 15384615.0 2.0))
              (* x110 (/ 15384615.0 2.0))
              (* x111 (/ 15384615.0 2.0))
              (* x112 (/ 15384615.0 2.0))
              (* x113 (/ 15384615.0 2.0))
              (* x114 (/ 15384615.0 2.0))
              (* x115 (/ 15384615.0 2.0))
              (* x116 (/ 15384615.0 2.0))
              (* x117 (/ 15384615.0 2.0))
              (* x118 (/ 15384615.0 2.0))
              (* x119 (/ 15384615.0 2.0))
              (* x120 (/ 15384615.0 2.0))
              (* x121 (/ 15384615.0 2.0))
              (* x122 (/ 15384615.0 2.0))
              (* x123 (/ 15384615.0 2.0))
              (* x124 (/ 15384615.0 2.0))
              (* x125 (/ 15384615.0 2.0))
              (* x126 (/ 15384615.0 2.0))
              (* x127 (/ 15384615.0 2.0))
              (* x128 (/ 15384615.0 2.0))
              (* x129 (/ 15384615.0 2.0))
              (- 996153856.0))))
(let ((a!2 (ite (< a!1 0.0)
                0.0
                (ite (> a!1 1.0) 1.0 (+ (* (/ 1.0 4.0) a!1) (/ 1.0 2.0))))))
  (=> (and (= x0 0.0)
           (= x1 0.0)
           (= x2 0.0)
           (= x3 0.0)
           (= x4 0.0)
           (= x5 0.0)
           (= x6 0.0)
           (= x7 0.0)
           (= x8 0.0)
           (= x9 0.0)
           (= x10 0.0)
           (= x11 0.0)
           (= x12 0.0)
           (= x13 0.0)
           (= x14 0.0)
           (= x15 0.0)
           (= x16 0.0)
           (= x17 0.0)
           (= x18 0.0)
           (= x19 0.0)
           (= x20 0.0)
           (= x21 0.0)
           (= x22 0.0)
           (= x23 0.0)
           (= x24 0.0)
           (= x25 0.0)
           (= x26 0.0)
           (= x27 0.0)
           (= x28 0.0)
           (= x29 0.0)
           (= x30 0.0)
           (= x31 0.0)
           (= x32 0.0)
           (= x33 0.0)
           (= x34 0.0)
           (= x35 0.0)
           (= x36 0.0)
           (= x37 0.0)
           (= x38 0.0)
           (= x39 0.0)
           (= x40 0.0)
           (= x41 0.0)
           (= x42 0.0)
           (= x43 0.0)
           (= x44 0.0)
           (= x45 0.0)
           (= x46 0.0)
           (= x47 0.0)
           (= x48 0.0)
           (= x49 0.0)
           (= x50 0.0)
           (= x51 0.0)
           (= x52 0.0)
           (= x53 0.0)
           (= x54 0.0)
           (= x55 0.0)
           (= x56 0.0)
           (= x57 0.0)
           (= x58 0.0)
           (= x59 0.0)
           (= x60 0.0)
           (= x61 0.0)
           (= x62 0.0)
           (= x63 0.0)
           (= x64 0.0)
           (= x65 0.0)
           (= x66 0.0)
           (= x67 0.0)
           (= x68 0.0)
           (= x69 0.0)
           (= x70 0.0)
           (= x71 0.0)
           (= x72 0.0)
           (= x73 0.0)
           (= x74 0.0)
           (= x75 0.0)
           (= x76 0.0)
           (= x77 0.0)
           (= x78 0.0)
           (= x79 0.0)
           (= x80 0.0)
           (= x81 0.0)
           (= x82 0.0)
           (= x83 0.0)
           (= x84 0.0)
           (= x85 0.0)
           (= x86 0.0)
           (= x87 0.0)
           (= x88 0.0)
           (= x89 0.0)
           (= x90 0.0)
           (= x91 0.0)
           (= x92 0.0)
           (= x93 0.0)
           (= x94 0.0)
           (= x95 0.0)
           (= x96 0.0)
           (= x97 0.0)
           (= x98 0.0)
           (= x99 0.0)
           (= x100 0.0)
           (= x101 0.0)
           (= x102 0.0)
           (= x103 0.0)
           (= x104 0.0)
           (= x105 0.0)
           (= x106 0.0)
           (= x107 0.0)
           (= x108 0.0)
           (= x109 0.0)
           (= x110 0.0)
           (= x111 0.0)
           (= x112 0.0)
           (= x113 0.0)
           (= x114 0.0)
           (= x115 0.0)
           (= x116 0.0)
           (= x117 0.0)
           (= x118 0.0)
           (= x119 0.0)
           (= x120 0.0)
           (= x121 0.0)
           (= x122 0.0)
           (= x123 0.0)
           (= x124 0.0)
           (= x125 0.0)
           (= x126 0.0)
           (= x127 0.0)
           (= x128 0.0)
           (= x129 0.0))
      (= a!2 0.0)))))
(assert (let ((a!1 (+ (* x0 (/ 15384615.0 2.0))
              (* x1 (/ 15384615.0 2.0))
              (* x2 (/ 15384615.0 2.0))
              (* x3 (/ 15384615.0 2.0))
              (* x4 (/ 15384615.0 2.0))
              (* x5 (/ 15384615.0 2.0))
              (* x6 (/ 15384615.0 2.0))
              (* x7 (/ 15384615.0 2.0))
              (* x8 (/ 15384615.0 2.0))
              (* x9 (/ 15384615.0 2.0))
              (* x10 (/ 15384615.0 2.0))
              (* x11 (/ 15384615.0 2.0))
              (* x12 (/ 15384615.0 2.0))
              (* x13 (/ 15384615.0 2.0))
              (* x14 (/ 15384615.0 2.0))
              (* x15 (/ 15384615.0 2.0))
              (* x16 (/ 15384615.0 2.0))
              (* x17 (/ 15384615.0 2.0))
              (* x18 (/ 15384615.0 2.0))
              (* x19 (/ 15384615.0 2.0))
              (* x20 (/ 15384615.0 2.0))
              (* x21 (/ 15384615.0 2.0))
              (* x22 (/ 15384615.0 2.0))
              (* x23 (/ 15384615.0 2.0))
              (* x24 (/ 15384615.0 2.0))
              (* x25 (/ 15384615.0 2.0))
              (* x26 (/ 15384615.0 2.0))
              (* x27 (/ 15384615.0 2.0))
              (* x28 (/ 15384615.0 2.0))
              (* x29 (/ 15384615.0 2.0))
              (* x30 (/ 15384615.0 2.0))
              (* x31 (/ 15384615.0 2.0))
              (* x32 (/ 15384615.0 2.0))
              (* x33 (/ 15384615.0 2.0))
              (* x34 (/ 15384615.0 2.0))
              (* x35 (/ 15384615.0 2.0))
              (* x36 (/ 15384615.0 2.0))
              (* x37 (/ 15384615.0 2.0))
              (* x38 (/ 15384615.0 2.0))
              (* x39 (/ 15384615.0 2.0))
              (* x40 (/ 15384615.0 2.0))
              (* x41 (/ 15384615.0 2.0))
              (* x42 (/ 15384615.0 2.0))
              (* x43 (/ 15384615.0 2.0))
              (* x44 (/ 15384615.0 2.0))
              (* x45 (/ 15384615.0 2.0))
              (* x46 (/ 15384615.0 2.0))
              (* x47 (/ 15384615.0 2.0))
              (* x48 (/ 15384615.0 2.0))
              (* x49 (/ 15384615.0 2.0))
              (* x50 (/ 15384615.0 2.0))
              (* x51 (/ 15384615.0 2.0))
              (* x52 (/ 15384615.0 2.0))
              (* x53 (/ 15384615.0 2.0))
              (* x54 (/ 15384615.0 2.0))
              (* x55 (/ 15384615.0 2.0))
              (* x56 (/ 15384615.0 2.0))
              (* x57 (/ 15384615.0 2.0))
              (* x58 (/ 15384615.0 2.0))
              (* x59 (/ 15384615.0 2.0))
              (* x60 (/ 15384615.0 2.0))
              (* x61 (/ 15384615.0 2.0))
              (* x62 (/ 15384615.0 2.0))
              (* x63 (/ 15384615.0 2.0))
              (* x64 (/ 15384615.0 2.0))
              (* x65 (/ 15384615.0 2.0))
              (* x66 (/ 15384615.0 2.0))
              (* x67 (/ 15384615.0 2.0))
              (* x68 (/ 15384615.0 2.0))
              (* x69 (/ 15384615.0 2.0))
              (* x70 (/ 15384615.0 2.0))
              (* x71 (/ 15384615.0 2.0))
              (* x72 (/ 15384615.0 2.0))
              (* x73 (/ 15384615.0 2.0))
              (* x74 (/ 15384615.0 2.0))
              (* x75 (/ 15384615.0 2.0))
              (* x76 (/ 15384615.0 2.0))
              (* x77 (/ 15384615.0 2.0))
              (* x78 (/ 15384615.0 2.0))
              (* x79 (/ 15384615.0 2.0))
              (* x80 (/ 15384615.0 2.0))
              (* x81 (/ 15384615.0 2.0))
              (* x82 (/ 15384615.0 2.0))
              (* x83 (/ 15384615.0 2.0))
              (* x84 (/ 15384615.0 2.0))
              (* x85 (/ 15384615.0 2.0))
              (* x86 (/ 15384615.0 2.0))
              (* x87 (/ 15384615.0 2.0))
              (* x88 (/ 15384615.0 2.0))
              (* x89 (/ 15384615.0 2.0))
              (* x90 (/ 15384615.0 2.0))
              (* x91 (/ 15384615.0 2.0))
              (* x92 (/ 15384615.0 2.0))
              (* x93 (/ 15384615.0 2.0))
              (* x94 (/ 15384615.0 2.0))
              (* x95 (/ 15384615.0 2.0))
              (* x96 (/ 15384615.0 2.0))
              (* x97 (/ 15384615.0 2.0))
              (* x98 (/ 15384615.0 2.0))
              (* x99 (/ 15384615.0 2.0))
              (* x100 (/ 15384615.0 2.0))
              (* x101 (/ 15384615.0 2.0))
              (* x102 (/ 15384615.0 2.0))
              (* x103 (/ 15384615.0 2.0))
              (* x104 (/ 15384615.0 2.0))
              (* x105 (/ 15384615.0 2.0))
              (* x106 (/ 15384615.0 2.0))
              (* x107 (/ 15384615.0 2.0))
              (* x108 (/ 15384615.0 2.0))
              (* x109 (/ 15384615.0 2.0))
              (* x110 (/ 15384615.0 2.0))
              (* x111 (/ 15384615.0 2.0))
              (* x112 (/ 15384615.0 2.0))
              (* x113 (/ 15384615.0 2.0))
              (* x114 (/ 15384615.0 2.0))
              (* x115 (/ 15384615.0 2.0))
              (* x116 (/ 15384615.0 2.0))
              (* x117 (/ 15384615.0 2.0))
              (* x118 (/ 15384615.0 2.0))
              (* x119 (/ 15384615.0 2.0))
              (* x120 (/ 15384615.0 2.0))
              (* x121 (/ 15384615.0 2.0))
              (* x122 (/ 15384615.0 2.0))
              (* x123 (/ 15384615.0 2.0))
              (* x124 (/ 15384615.0 2.0))
              (* x125 (/ 15384615.0 2.0))
              (* x126 (/ 15384615.0 2.0))
              (* x127 (/ 15384615.0 2.0))
              (* x128 (/ 15384615.0 2.0))
              (* x129 (/ 15384615.0 2.0))
              (- 996153856.0))))
(let ((a!2 (ite (< a!1 0.0)
                0.0
                (ite (> a!1 1.0) 1.0 (+ (* (/ 1.0 4.0) a!1) (/ 1.0 2.0))))))
  (=> (and (= x0 0.0)
           (= x1 1.0)
           (= x2 1.0)
           (= x3 1.0)
           (= x4 1.0)
           (= x5 1.0)
           (= x6 1.0)
           (= x7 1.0)
           (= x8 1.0)
           (= x9 1.0)
           (= x10 1.0)
           (= x11 1.0)
           (= x12 1.0)
           (= x13 1.0)
           (= x14 1.0)
           (= x15 1.0)
           (= x16 1.0)
           (= x17 1.0)
           (= x18 1.0)
           (= x19 1.0)
           (= x20 1.0)
           (= x21 1.0)
           (= x22 1.0)
           (= x23 1.0)
           (= x24 1.0)
           (= x25 1.0)
           (= x26 1.0)
           (= x27 1.0)
           (= x28 1.0)
           (= x29 1.0)
           (= x30 1.0)
           (= x31 1.0)
           (= x32 1.0)
           (= x33 1.0)
           (= x34 1.0)
           (= x35 1.0)
           (= x36 1.0)
           (= x37 1.0)
           (= x38 1.0)
           (= x39 1.0)
           (= x40 1.0)
           (= x41 1.0)
           (= x42 1.0)
           (= x43 1.0)
           (= x44 1.0)
           (= x45 1.0)
           (= x46 1.0)
           (= x47 1.0)
           (= x48 1.0)
           (= x49 1.0)
           (= x50 1.0)
           (= x51 1.0)
           (= x52 1.0)
           (= x53 1.0)
           (= x54 1.0)
           (= x55 1.0)
           (= x56 1.0)
           (= x57 1.0)
           (= x58 1.0)
           (= x59 1.0)
           (= x60 1.0)
           (= x61 1.0)
           (= x62 1.0)
           (= x63 1.0)
           (= x64 1.0)
           (= x65 1.0)
           (= x66 1.0)
           (= x67 1.0)
           (= x68 1.0)
           (= x69 1.0)
           (= x70 1.0)
           (= x71 1.0)
           (= x72 1.0)
           (= x73 1.0)
           (= x74 1.0)
           (= x75 1.0)
           (= x76 1.0)
           (= x77 1.0)
           (= x78 1.0)
           (= x79 1.0)
           (= x80 1.0)
           (= x81 1.0)
           (= x82 1.0)
           (= x83 1.0)
           (= x84 1.0)
           (= x85 1.0)
           (= x86 1.0)
           (= x87 1.0)
           (= x88 1.0)
           (= x89 1.0)
           (= x90 1.0)
           (= x91 1.0)
           (= x92 1.0)
           (= x93 1.0)
           (= x94 1.0)
           (= x95 1.0)
           (= x96 1.0)
           (= x97 1.0)
           (= x98 1.0)
           (= x99 1.0)
           (= x100 1.0)
           (= x101 1.0)
           (= x102 1.0)
           (= x103 1.0)
           (= x104 1.0)
           (= x105 1.0)
           (= x106 1.0)
           (= x107 1.0)
           (= x108 1.0)
           (= x109 1.0)
           (= x110 1.0)
           (= x111 1.0)
           (= x112 1.0)
           (= x113 1.0)
           (= x114 1.0)
           (= x115 1.0)
           (= x116 1.0)
           (= x117 1.0)
           (= x118 1.0)
           (= x119 1.0)
           (= x120 1.0)
           (= x121 1.0)
           (= x122 1.0)
           (= x123 1.0)
           (= x124 1.0)
           (= x125 1.0)
           (= x126 1.0)
           (= x127 1.0)
           (= x128 1.0)
           (= x129 1.0))
      (= a!2 0.0)))))
(assert (let ((a!1 (+ (* x0 (/ 15384615.0 2.0))
              (* x1 (/ 15384615.0 2.0))
              (* x2 (/ 15384615.0 2.0))
              (* x3 (/ 15384615.0 2.0))
              (* x4 (/ 15384615.0 2.0))
              (* x5 (/ 15384615.0 2.0))
              (* x6 (/ 15384615.0 2.0))
              (* x7 (/ 15384615.0 2.0))
              (* x8 (/ 15384615.0 2.0))
              (* x9 (/ 15384615.0 2.0))
              (* x10 (/ 15384615.0 2.0))
              (* x11 (/ 15384615.0 2.0))
              (* x12 (/ 15384615.0 2.0))
              (* x13 (/ 15384615.0 2.0))
              (* x14 (/ 15384615.0 2.0))
              (* x15 (/ 15384615.0 2.0))
              (* x16 (/ 15384615.0 2.0))
              (* x17 (/ 15384615.0 2.0))
              (* x18 (/ 15384615.0 2.0))
              (* x19 (/ 15384615.0 2.0))
              (* x20 (/ 15384615.0 2.0))
              (* x21 (/ 15384615.0 2.0))
              (* x22 (/ 15384615.0 2.0))
              (* x23 (/ 15384615.0 2.0))
              (* x24 (/ 15384615.0 2.0))
              (* x25 (/ 15384615.0 2.0))
              (* x26 (/ 15384615.0 2.0))
              (* x27 (/ 15384615.0 2.0))
              (* x28 (/ 15384615.0 2.0))
              (* x29 (/ 15384615.0 2.0))
              (* x30 (/ 15384615.0 2.0))
              (* x31 (/ 15384615.0 2.0))
              (* x32 (/ 15384615.0 2.0))
              (* x33 (/ 15384615.0 2.0))
              (* x34 (/ 15384615.0 2.0))
              (* x35 (/ 15384615.0 2.0))
              (* x36 (/ 15384615.0 2.0))
              (* x37 (/ 15384615.0 2.0))
              (* x38 (/ 15384615.0 2.0))
              (* x39 (/ 15384615.0 2.0))
              (* x40 (/ 15384615.0 2.0))
              (* x41 (/ 15384615.0 2.0))
              (* x42 (/ 15384615.0 2.0))
              (* x43 (/ 15384615.0 2.0))
              (* x44 (/ 15384615.0 2.0))
              (* x45 (/ 15384615.0 2.0))
              (* x46 (/ 15384615.0 2.0))
              (* x47 (/ 15384615.0 2.0))
              (* x48 (/ 15384615.0 2.0))
              (* x49 (/ 15384615.0 2.0))
              (* x50 (/ 15384615.0 2.0))
              (* x51 (/ 15384615.0 2.0))
              (* x52 (/ 15384615.0 2.0))
              (* x53 (/ 15384615.0 2.0))
              (* x54 (/ 15384615.0 2.0))
              (* x55 (/ 15384615.0 2.0))
              (* x56 (/ 15384615.0 2.0))
              (* x57 (/ 15384615.0 2.0))
              (* x58 (/ 15384615.0 2.0))
              (* x59 (/ 15384615.0 2.0))
              (* x60 (/ 15384615.0 2.0))
              (* x61 (/ 15384615.0 2.0))
              (* x62 (/ 15384615.0 2.0))
              (* x63 (/ 15384615.0 2.0))
              (* x64 (/ 15384615.0 2.0))
              (* x65 (/ 15384615.0 2.0))
              (* x66 (/ 15384615.0 2.0))
              (* x67 (/ 15384615.0 2.0))
              (* x68 (/ 15384615.0 2.0))
              (* x69 (/ 15384615.0 2.0))
              (* x70 (/ 15384615.0 2.0))
              (* x71 (/ 15384615.0 2.0))
              (* x72 (/ 15384615.0 2.0))
              (* x73 (/ 15384615.0 2.0))
              (* x74 (/ 15384615.0 2.0))
              (* x75 (/ 15384615.0 2.0))
              (* x76 (/ 15384615.0 2.0))
              (* x77 (/ 15384615.0 2.0))
              (* x78 (/ 15384615.0 2.0))
              (* x79 (/ 15384615.0 2.0))
              (* x80 (/ 15384615.0 2.0))
              (* x81 (/ 15384615.0 2.0))
              (* x82 (/ 15384615.0 2.0))
              (* x83 (/ 15384615.0 2.0))
              (* x84 (/ 15384615.0 2.0))
              (* x85 (/ 15384615.0 2.0))
              (* x86 (/ 15384615.0 2.0))
              (* x87 (/ 15384615.0 2.0))
              (* x88 (/ 15384615.0 2.0))
              (* x89 (/ 15384615.0 2.0))
              (* x90 (/ 15384615.0 2.0))
              (* x91 (/ 15384615.0 2.0))
              (* x92 (/ 15384615.0 2.0))
              (* x93 (/ 15384615.0 2.0))
              (* x94 (/ 15384615.0 2.0))
              (* x95 (/ 15384615.0 2.0))
              (* x96 (/ 15384615.0 2.0))
              (* x97 (/ 15384615.0 2.0))
              (* x98 (/ 15384615.0 2.0))
              (* x99 (/ 15384615.0 2.0))
              (* x100 (/ 15384615.0 2.0))
              (* x101 (/ 15384615.0 2.0))
              (* x102 (/ 15384615.0 2.0))
              (* x103 (/ 15384615.0 2.0))
              (* x104 (/ 15384615.0 2.0))
              (* x105 (/ 15384615.0 2.0))
              (* x106 (/ 15384615.0 2.0))
              (* x107 (/ 15384615.0 2.0))
              (* x108 (/ 15384615.0 2.0))
              (* x109 (/ 15384615.0 2.0))
              (* x110 (/ 15384615.0 2.0))
              (* x111 (/ 15384615.0 2.0))
              (* x112 (/ 15384615.0 2.0))
              (* x113 (/ 15384615.0 2.0))
              (* x114 (/ 15384615.0 2.0))
              (* x115 (/ 15384615.0 2.0))
              (* x116 (/ 15384615.0 2.0))
              (* x117 (/ 15384615.0 2.0))
              (* x118 (/ 15384615.0 2.0))
              (* x119 (/ 15384615.0 2.0))
              (* x120 (/ 15384615.0 2.0))
              (* x121 (/ 15384615.0 2.0))
              (* x122 (/ 15384615.0 2.0))
              (* x123 (/ 15384615.0 2.0))
              (* x124 (/ 15384615.0 2.0))
              (* x125 (/ 15384615.0 2.0))
              (* x126 (/ 15384615.0 2.0))
              (* x127 (/ 15384615.0 2.0))
              (* x128 (/ 15384615.0 2.0))
              (* x129 (/ 15384615.0 2.0))
              (- 996153856.0))))
(let ((a!2 (ite (< a!1 0.0)
                0.0
                (ite (> a!1 1.0) 1.0 (+ (* (/ 1.0 4.0) a!1) (/ 1.0 2.0))))))
  (=> (and (= x0 0.0)
           (= x1 0.0)
           (= x2 0.0)
           (= x3 0.0)
           (= x4 0.0)
           (= x5 0.0)
           (= x6 0.0)
           (= x7 0.0)
           (= x8 0.0)
           (= x9 0.0)
           (= x10 0.0)
           (= x11 0.0)
           (= x12 0.0)
           (= x13 0.0)
           (= x14 0.0)
           (= x15 0.0)
           (= x16 0.0)
           (= x17 0.0)
           (= x18 0.0)
           (= x19 0.0)
           (= x20 0.0)
           (= x21 0.0)
           (= x22 0.0)
           (= x23 0.0)
           (= x24 0.0)
           (= x25 0.0)
           (= x26 0.0)
           (= x27 0.0)
           (= x28 0.0)
           (= x29 0.0)
           (= x30 0.0)
           (= x31 0.0)
           (= x32 0.0)
           (= x33 0.0)
           (= x34 0.0)
           (= x35 0.0)
           (= x36 0.0)
           (= x37 0.0)
           (= x38 0.0)
           (= x39 0.0)
           (= x40 0.0)
           (= x41 0.0)
           (= x42 0.0)
           (= x43 0.0)
           (= x44 0.0)
           (= x45 0.0)
           (= x46 0.0)
           (= x47 0.0)
           (= x48 0.0)
           (= x49 0.0)
           (= x50 0.0)
           (= x51 0.0)
           (= x52 0.0)
           (= x53 0.0)
           (= x54 0.0)
           (= x55 0.0)
           (= x56 0.0)
           (= x57 0.0)
           (= x58 0.0)
           (= x59 0.0)
           (= x60 0.0)
           (= x61 0.0)
           (= x62 0.0)
           (= x63 0.0)
           (= x64 0.0)
           (= x65 0.0)
           (= x66 0.0)
           (= x67 0.0)
           (= x68 0.0)
           (= x69 0.0)
           (= x70 0.0)
           (= x71 0.0)
           (= x72 0.0)
           (= x73 0.0)
           (= x74 0.0)
           (= x75 0.0)
           (= x76 0.0)
           (= x77 0.0)
           (= x78 0.0)
           (= x79 0.0)
           (= x80 0.0)
           (= x81 0.0)
           (= x82 0.0)
           (= x83 0.0)
           (= x84 0.0)
           (= x85 0.0)
           (= x86 0.0)
           (= x87 0.0)
           (= x88 0.0)
           (= x89 0.0)
           (= x90 0.0)
           (= x91 0.0)
           (= x92 0.0)
           (= x93 0.0)
           (= x94 0.0)
           (= x95 0.0)
           (= x96 0.0)
           (= x97 0.0)
           (= x98 0.0)
           (= x99 0.0)
           (= x100 0.0)
           (= x101 0.0)
           (= x102 0.0)
           (= x103 0.0)
           (= x104 0.0)
           (= x105 0.0)
           (= x106 0.0)
           (= x107 0.0)
           (= x108 0.0)
           (= x109 0.0)
           (= x110 0.0)
           (= x111 0.0)
           (= x112 0.0)
           (= x113 0.0)
           (= x114 0.0)
           (= x115 0.0)
           (= x116 0.0)
           (= x117 0.0)
           (= x118 0.0)
           (= x119 0.0)
           (= x120 0.0)
           (= x121 0.0)
           (= x122 0.0)
           (= x123 0.0)
           (= x124 0.0)
           (= x125 0.0)
           (= x126 0.0)
           (= x127 0.0)
           (= x128 0.0)
           (= x129 1.0))
      (= a!2 0.0)))))
(assert (let ((a!1 (+ (* x0 (/ 15384615.0 2.0))
              (* x1 (/ 15384615.0 2.0))
              (* x2 (/ 15384615.0 2.0))
              (* x3 (/ 15384615.0 2.0))
              (* x4 (/ 15384615.0 2.0))
              (* x5 (/ 15384615.0 2.0))
              (* x6 (/ 15384615.0 2.0))
              (* x7 (/ 15384615.0 2.0))
              (* x8 (/ 15384615.0 2.0))
              (* x9 (/ 15384615.0 2.0))
              (* x10 (/ 15384615.0 2.0))
              (* x11 (/ 15384615.0 2.0))
              (* x12 (/ 15384615.0 2.0))
              (* x13 (/ 15384615.0 2.0))
              (* x14 (/ 15384615.0 2.0))
              (* x15 (/ 15384615.0 2.0))
              (* x16 (/ 15384615.0 2.0))
              (* x17 (/ 15384615.0 2.0))
              (* x18 (/ 15384615.0 2.0))
              (* x19 (/ 15384615.0 2.0))
              (* x20 (/ 15384615.0 2.0))
              (* x21 (/ 15384615.0 2.0))
              (* x22 (/ 15384615.0 2.0))
              (* x23 (/ 15384615.0 2.0))
              (* x24 (/ 15384615.0 2.0))
              (* x25 (/ 15384615.0 2.0))
              (* x26 (/ 15384615.0 2.0))
              (* x27 (/ 15384615.0 2.0))
              (* x28 (/ 15384615.0 2.0))
              (* x29 (/ 15384615.0 2.0))
              (* x30 (/ 15384615.0 2.0))
              (* x31 (/ 15384615.0 2.0))
              (* x32 (/ 15384615.0 2.0))
              (* x33 (/ 15384615.0 2.0))
              (* x34 (/ 15384615.0 2.0))
              (* x35 (/ 15384615.0 2.0))
              (* x36 (/ 15384615.0 2.0))
              (* x37 (/ 15384615.0 2.0))
              (* x38 (/ 15384615.0 2.0))
              (* x39 (/ 15384615.0 2.0))
              (* x40 (/ 15384615.0 2.0))
              (* x41 (/ 15384615.0 2.0))
              (* x42 (/ 15384615.0 2.0))
              (* x43 (/ 15384615.0 2.0))
              (* x44 (/ 15384615.0 2.0))
              (* x45 (/ 15384615.0 2.0))
              (* x46 (/ 15384615.0 2.0))
              (* x47 (/ 15384615.0 2.0))
              (* x48 (/ 15384615.0 2.0))
              (* x49 (/ 15384615.0 2.0))
              (* x50 (/ 15384615.0 2.0))
              (* x51 (/ 15384615.0 2.0))
              (* x52 (/ 15384615.0 2.0))
              (* x53 (/ 15384615.0 2.0))
              (* x54 (/ 15384615.0 2.0))
              (* x55 (/ 15384615.0 2.0))
              (* x56 (/ 15384615.0 2.0))
              (* x57 (/ 15384615.0 2.0))
              (* x58 (/ 15384615.0 2.0))
              (* x59 (/ 15384615.0 2.0))
              (* x60 (/ 15384615.0 2.0))
              (* x61 (/ 15384615.0 2.0))
              (* x62 (/ 15384615.0 2.0))
              (* x63 (/ 15384615.0 2.0))
              (* x64 (/ 15384615.0 2.0))
              (* x65 (/ 15384615.0 2.0))
              (* x66 (/ 15384615.0 2.0))
              (* x67 (/ 15384615.0 2.0))
              (* x68 (/ 15384615.0 2.0))
              (* x69 (/ 15384615.0 2.0))
              (* x70 (/ 15384615.0 2.0))
              (* x71 (/ 15384615.0 2.0))
              (* x72 (/ 15384615.0 2.0))
              (* x73 (/ 15384615.0 2.0))
              (* x74 (/ 15384615.0 2.0))
              (* x75 (/ 15384615.0 2.0))
              (* x76 (/ 15384615.0 2.0))
              (* x77 (/ 15384615.0 2.0))
              (* x78 (/ 15384615.0 2.0))
              (* x79 (/ 15384615.0 2.0))
              (* x80 (/ 15384615.0 2.0))
              (* x81 (/ 15384615.0 2.0))
              (* x82 (/ 15384615.0 2.0))
              (* x83 (/ 15384615.0 2.0))
              (* x84 (/ 15384615.0 2.0))
              (* x85 (/ 15384615.0 2.0))
              (* x86 (/ 15384615.0 2.0))
              (* x87 (/ 15384615.0 2.0))
              (* x88 (/ 15384615.0 2.0))
              (* x89 (/ 15384615.0 2.0))
              (* x90 (/ 15384615.0 2.0))
              (* x91 (/ 15384615.0 2.0))
              (* x92 (/ 15384615.0 2.0))
              (* x93 (/ 15384615.0 2.0))
              (* x94 (/ 15384615.0 2.0))
              (* x95 (/ 15384615.0 2.0))
              (* x96 (/ 15384615.0 2.0))
              (* x97 (/ 15384615.0 2.0))
              (* x98 (/ 15384615.0 2.0))
              (* x99 (/ 15384615.0 2.0))
              (* x100 (/ 15384615.0 2.0))
              (* x101 (/ 15384615.0 2.0))
              (* x102 (/ 15384615.0 2.0))
              (* x103 (/ 15384615.0 2.0))
              (* x104 (/ 15384615.0 2.0))
              (* x105 (/ 15384615.0 2.0))
              (* x106 (/ 15384615.0 2.0))
              (* x107 (/ 15384615.0 2.0))
              (* x108 (/ 15384615.0 2.0))
              (* x109 (/ 15384615.0 2.0))
              (* x110 (/ 15384615.0 2.0))
              (* x111 (/ 15384615.0 2.0))
              (* x112 (/ 15384615.0 2.0))
              (* x113 (/ 15384615.0 2.0))
              (* x114 (/ 15384615.0 2.0))
              (* x115 (/ 15384615.0 2.0))
              (* x116 (/ 15384615.0 2.0))
              (* x117 (/ 15384615.0 2.0))
              (* x118 (/ 15384615.0 2.0))
              (* x119 (/ 15384615.0 2.0))
              (* x120 (/ 15384615.0 2.0))
              (* x121 (/ 15384615.0 2.0))
              (* x122 (/ 15384615.0 2.0))
              (* x123 (/ 15384615.0 2.0))
              (* x124 (/ 15384615.0 2.0))
              (* x125 (/ 15384615.0 2.0))
              (* x126 (/ 15384615.0 2.0))
              (* x127 (/ 15384615.0 2.0))
              (* x128 (/ 15384615.0 2.0))
              (* x129 (/ 15384615.0 2.0))
              (- 996153856.0))))
(let ((a!2 (ite (< a!1 0.0)
                0.0
                (ite (> a!1 1.0) 1.0 (+ (* (/ 1.0 4.0) a!1) (/ 1.0 2.0))))))
  (=> (and (= x0 1.0)
           (= x1 1.0)
           (= x2 1.0)
           (= x3 1.0)
           (= x4 1.0)
           (= x5 1.0)
           (= x6 1.0)
           (= x7 1.0)
           (= x8 1.0)
           (= x9 1.0)
           (= x10 1.0)
           (= x11 1.0)
           (= x12 1.0)
           (= x13 1.0)
           (= x14 1.0)
           (= x15 1.0)
           (= x16 1.0)
           (= x17 1.0)
           (= x18 1.0)
           (= x19 1.0)
           (= x20 1.0)
           (= x21 1.0)
           (= x22 1.0)
           (= x23 1.0)
           (= x24 1.0)
           (= x25 1.0)
           (= x26 1.0)
           (= x27 1.0)
           (= x28 1.0)
           (= x29 1.0)
           (= x30 1.0)
           (= x31 1.0)
           (= x32 1.0)
           (= x33 1.0)
           (= x34 1.0)
           (= x35 1.0)
           (= x36 1.0)
           (= x37 1.0)
           (= x38 1.0)
           (= x39 1.0)
           (= x40 1.0)
           (= x41 1.0)
           (= x42 1.0)
           (= x43 1.0)
           (= x44 1.0)
           (= x45 1.0)
           (= x46 1.0)
           (= x47 1.0)
           (= x48 1.0)
           (= x49 1.0)
           (= x50 1.0)
           (= x51 1.0)
           (= x52 1.0)
           (= x53 1.0)
           (= x54 1.0)
           (= x55 1.0)
           (= x56 1.0)
           (= x57 1.0)
           (= x58 1.0)
           (= x59 1.0)
           (= x60 1.0)
           (= x61 1.0)
           (= x62 1.0)
           (= x63 1.0)
           (= x64 1.0)
           (= x65 1.0)
           (= x66 1.0)
           (= x67 1.0)
           (= x68 1.0)
           (= x69 1.0)
           (= x70 1.0)
           (= x71 1.0)
           (= x72 1.0)
           (= x73 1.0)
           (= x74 1.0)
           (= x75 1.0)
           (= x76 1.0)
           (= x77 1.0)
           (= x78 1.0)
           (= x79 1.0)
           (= x80 1.0)
           (= x81 1.0)
           (= x82 1.0)
           (= x83 1.0)
           (= x84 1.0)
           (= x85 1.0)
           (= x86 1.0)
           (= x87 1.0)
           (= x88 1.0)
           (= x89 1.0)
           (= x90 1.0)
           (= x91 1.0)
           (= x92 1.0)
           (= x93 1.0)
           (= x94 1.0)
           (= x95 1.0)
           (= x96 1.0)
           (= x97 1.0)
           (= x98 1.0)
           (= x99 1.0)
           (= x100 1.0)
           (= x101 1.0)
           (= x102 1.0)
           (= x103 1.0)
           (= x104 1.0)
           (= x105 1.0)
           (= x106 1.0)
           (= x107 1.0)
           (= x108 1.0)
           (= x109 1.0)
           (= x110 1.0)
           (= x111 1.0)
           (= x112 1.0)
           (= x113 1.0)
           (= x114 1.0)
           (= x115 1.0)
           (= x116 1.0)
           (= x117 1.0)
           (= x118 1.0)
           (= x119 1.0)
           (= x120 1.0)
           (= x121 1.0)
           (= x122 1.0)
           (= x123 1.0)
           (= x124 1.0)
           (= x125 1.0)
           (= x126 1.0)
           (= x127 1.0)
           (= x128 1.0)
           (= x129 1.0))
      (= a!2 1.0)))))
(check-sat)
